NAME: toyA
TYPE: LG
COMMENT: Level Grouping
DIMENSION: 20
NODE_COORD_SECTION
1 0 Electronic
2 1 Reading
3 1 TV
4 2 VideoGames
5 0 Plays
6 1 Action
7 3 Racing
8 2 Ballet
9 3 TV
10 1 Electronic
11 0 Reading
12 1 TV
13 1 VideoGames
14 2 Plays
15 0 Action
16 1 Racing
17 3 Ballet
18 2 Plays
19 3 Action
20 1 Racing
EOF